36
100
80	1
78	2
77	1
76	1
75	1
74	2
72	2
69	3
68	1
67	1
65	3
64	1
63	1
62	1
61	1
57	2
56	1
54	1
53	1
52	1
50	1
47	2
45	1
44	1
40	1
38	1
36	1
35	1
33	1
32	2
29	3
27	1
26	1
24	1
21	2
20	2
